00101011101000110001001100110110001000010010000010010100010101100000010100110011100010100101001100111100010101011000101111011001001010110101101100001100100111001001010010111110001101000110011001011110101111101111001001101101100010111111010011111111001111111110101111000001000010100011010100011101011100111110011000010010010001111000111010010101110001100001010111101000000101100011011111001001010100011111110100111100000101101010001011001110110000100111101001000100001011101000101111000101010000011101001101110011